0000000000000000
0111111111111100
0111111111111100
0111111111111100
0000000011110000
0000000011110000
0000000011110000
0000000011110000
0000000011110000
0000000011110000
0000000011110000
0000000011110000
0000000011110000
0000000011110000
0000000011110000
0000000000000000
